1851, 0, 0, 78, 3
1852, 0, 1, 98, 1
1853, 0, 2, 75, 0
1854, 0, 3, 53, 2
1855, 1, 0, 99, 2
1856, 1, 1, 63, 0
1857, 1, 2, 52, 3
1858, 1, 3, 36, 1
1859, 2, 0, 36, 2
1860, 2, 1, 96, 3
1861, 2, 2, 80, 1
1862, 2, 3, 86, 0
1863, 3, 0, 50, 0
1864, 3, 1, 93, 1
1865, 3, 2, 85, 3
1866, 3, 3, 95, 2
